Minimize
  obj: x0 + x1 + x2 + x3 + x4 + x5 + x6 + x7 + x8 + x9

Subject To
  c0: x1 + x3 + x5 + x8 + x9 = 50
  c1: x0 + x3 + x5 + x6 + x8 + x9 = 75
  c2: x0 + x1 + x3 + x6 + x7 + x8 = 73
  c3: x0 + x4 + x5 + x7 + x8 + x9 = 52
  c4: x0 + x1 + x3 + x6 = 57
  c5: x0 + x1 + x4 + x8 + x9 = 48
  c6: x0 + x1 + x2 + x3 + x5 + x6 + x7 + x8 = 255
  c7: x0 + x1 + x3 + x5 + x7 + x8 = 66
  c8: x0 + x1 + x2 + x5 + x7 + x8 + x9 = 220
  c9: x1 + x3 + x6 + x7 + x8 = 58

Bounds
  x0 >= 0
  x1 >= 0
  x2 >= 0
  x3 >= 0
  x4 >= 0
  x5 >= 0
  x6 >= 0
  x7 >= 0
  x8 >= 0
  x9 >= 0

Generals
  x0 x1 x2 x3 x4 x5 x6 x7 x8 x9

End
